clingo version 5.6.2
Reading from ...etition/0038-graph_colouring-140-0.asp ...
Solving...
UNSATISFIABLE

Models       : 0
Calls        : 1
Time         : 30.711s (Solving: 30.49s 1st Model: 0.00s Unsat: 30.49s)
CPU Time     : 30.677s

Choices      : 1024096 
Conflicts    : 940386   (Analyzed: 940385)
Restarts     : 2346     (Average: 400.85 Last: 159)
Problems     : 1        (Average Length: 0.00 Splits: 0)
Lemmas       : 940385   (Deleted: 905526)
  Binary     : 288      (Ratio:   0.03%)
  Ternary    : 1700     (Ratio:   0.18%)
  Conflict   : 940385   (Average Length:   26.9 Ratio: 100.00%) 
  Loop       : 0        (Average Length:    0.0 Ratio:   0.00%) 
  Other      : 0        (Average Length:    0.0 Ratio:   0.00%) 
Backjumps    : 940385   (Average:  1.08 Max:  10 Sum: 1012152)
  Executed   : 940385   (Average:  1.08 Max:  10 Sum: 1012152 Ratio: 100.00%)
  Bounded    : 0        (Average:  0.00 Max:   0 Sum:      0 Ratio:   0.00%)

Rules        : 19734   
Atoms        : 3610    
Bodies       : 1380    
Equivalences : 2724     (Atom=Atom: 18 Body=Body: 675 Other: 2031)
Tight        : Yes
Variables    : 821      (Eliminated:    0 Frozen:    0)
Constraints  : 7856     (Binary:  89.7% Ternary:   0.1% Other:  10.3%)

